r = [
0,16,7,19,19,13,18,1,19,13,18,0
];
p = [
0,9,29,27,15,23,10,5,24,23,20,0
];
e = [
0,9,3,20,17,19,20,10,11,8,1,0
];
d = [
0,180,173,194,183,187,177,171,181,173,176,197
];
d_bar = [
0,181,176,197,185,189,178,172,183,175,178,197
];
w = [
0,9,1,6.666666667,8.5,9.5,20,10,5.5,4,0.5,0
];
